p cnf 10 50
-10 -6 4 0
-6 -1 -3 0
-3 -5 8 0
-9 -3 5 0
6 10 2 0
-4 6 5 0
-9 -7 1 0
-4 10 -7 0
-1 2 10 0
-3 2 -4 0
10 -9 -3 0
-2 -5 6 0
-8 9 7 0
-5 3 -4 0
-10 5 7 0
-8 -6 -1 0
-7 -9 5 0
4 -10 5 0
-8 -6 3 0
2 8 -1 0
-8 4 7 0
-7 9 6 0
4 2 5 0
8 6 -4 0
2 9 -5 0
-7 -3 8 0
7 -3 -8 0
-4 -8 -3 0
-7 1 8 0
-3 5 -1 0
-3 6 -1 0
-9 -10 -8 0
-2 -3 6 0
-10 -3 -8 0
1 -10 9 0
9 -1 2 0
5 -3 -7 0
3 7 -4 0
10 3 1 0
-3 -1 10 0
3 4 -8 0
-10 -8 6 0
1 -7 -3 0
-6 9 -7 0
7 -9 10 0
6 -9 -8 0
-4 -6 3 0
-7 4 3 0
-7 -8 4 0
9 10 6 0